NAME : TSP_INST.7696178.tour
COMMENT : Length = 7696178
COMMENT : Found by LKH [Keld Helsgaun] Sat Oct 18 11:07:55 2025
TYPE : TOUR
DIMENSION : 100
TOUR_SECTION
1
38
97
39
22
70
7
30
37
21
43
27
96
73
83
52
11
57
91
25
59
9
66
49
47
64
79
42
6
16
46
14
98
81
50
44
93
29
76
90
92
10
78
87
74
4
75
17
24
62
58
82
45
89
34
80
71
86
48
85
31
20
100
3
28
60
88
40
23
95
68
67
36
33
2
54
72
51
8
65
19
61
41
13
15
69
63
12
53
18
32
35
56
55
5
84
77
26
94
99
-1
EOF
